
Gurobi 6.5.2 (win64) logging started 07/24/16 17:49:30


Gurobi 6.5.2 (win64) logging started 07/24/16 17:49:30

Optimize a model with 4437 rows, 825 columns and 10947 nonzeros
Coefficient statistics:
  Matrix range    [6e-08, 1e+03]
  Objective range [1e+00, 1e+00]
  Bounds range    [1e+00, 1e+00]
  RHS range       [6e-06, 2e+03]
Presolve removed 4179 rows and 560 columns
Presolve time: 0.00s
Presolved: 258 rows, 265 columns, 1092 nonzeros
Variable types: 265 continuous, 0 integer (0 binary)

Root relaxation: objective 2.182079e+01, 331 iterations, 0.00 seconds

    Nodes    |    Current Node    |     Objective Bounds      |     Work
 Expl Unexpl |  Obj  Depth IntInf | Incumbent    BestBd   Gap | It/Node Time

*    0     0               0      21.8207887   21.82079  0.00%     -    0s

Explored 0 nodes (331 simplex iterations) in 0.02 seconds
Thread count was 8 (of 8 available processors)

Optimal solution found (tolerance 1.00e-04)
Best objective 2.182078871255e+01, best bound 2.182078871255e+01, gap 0.0%

Wrote requested result file 'H1\instance27\\Results27EC_Sol6.lp'

